;symbolic execution tree
(push)
(assert (le x15 weka.core.Instance))
(check-sat)
(push)
(assert (le x11 java.lang.StringBuffer))
(check-sat)
(pop)
(push)
(assert (not (le x11 java.lang.StringBuffer)))
(check-sat)
(push)
(assert (le x4 weka.core.Instance))
(check-sat)
(pop)
(push)
(assert (not (le x4 weka.core.Instance)))
(check-sat)
(push)
(assert (le x15 weka.core.Instance))
(check-sat)
(pop)
(push)
(assert (not (le x15 weka.core.Instance)))
(check-sat)
(pop)
(pop)
(pop)
(push)
(assert (le x1 weka.core.Instances))
(check-sat)
(pop)
(push)
(assert (not (le x1 weka.core.Instances)))
(check-sat)
(push)
(assert (le x13 java.lang.StringBuilder))
(check-sat)
(push)
(assert (le x6 java.util.Vector))
(check-sat)
(pop)
(push)
(assert (not (le x6 java.util.Vector)))
(check-sat)
(pop)
(pop)
(push)
(assert (not (le x13 java.lang.StringBuilder)))
(check-sat)
(push)
(assert (le x2 java.lang.String))
(check-sat)
(pop)
(push)
(assert (not (le x2 java.lang.String)))
(check-sat)
(pop)
(push)
(assert (le x7 java.lang.String))
(check-sat)
(pop)
(push)
(assert (not (le x7 java.lang.String)))
(check-sat)
(push)
(assert (le x10 java.lang.String))
(check-sat)
(pop)
(push)
(assert (not (le x10 java.lang.String)))
(check-sat)
(pop)
(pop)
(push)
(assert (le x15 weka.core.SparseInstance))
(check-sat)
(push)
(assert (le x9 weka.core.Attribute))
(check-sat)
(pop)
(push)
(assert (not (le x9 weka.core.Attribute)))
(check-sat)
(pop)
(pop)
(push)
(assert (le x15 weka.core.Instance))
(check-sat)
(push)
(assert (not (le x15 weka.core.SparseInstance)))
(check-sat)
(pop)
(pop)
(pop)
(push)
(assert (le x1 weka.core.Instances))
(check-sat)
(pop)
(push)
(assert (not (le x1 weka.core.Instances)))
(check-sat)
(pop)
(push)
(assert (le x6 java.lang.Boolean))
(check-sat)
(pop)
(push)
(assert (not (le x6 java.lang.Boolean)))
(check-sat)
(pop)
(push)
(assert (le x8 java.util.HashSet))
(check-sat)
(pop)
(push)
(assert (not (le x8 java.util.HashSet)))
(check-sat)
(pop)
(push)
(assert (le x5 weka.core.Instances))
(check-sat)
(push)
(assert (le x13 java.lang.String))
(check-sat)
(push)
(assert (le x5 weka.core.Instances))
(check-sat)
(pop)
(push)
(assert (not (le x5 weka.core.Instances)))
(check-sat)
(pop)
(pop)
(push)
(assert (not (le x13 java.lang.String)))
(check-sat)
(pop)
(push)
(assert (le x1 weka.core.Instances))
(check-sat)
(pop)
(push)
(assert (not (le x1 weka.core.Instances)))
(check-sat)
(pop)
(pop)
(push)
(assert (not (le x5 weka.core.Instances)))
(check-sat)
(push)
(assert (le x11 weka.core.AttributeLocator))
(check-sat)
(pop)
(push)
(assert (not (le x11 weka.core.AttributeLocator)))
(check-sat)
(push)
(assert (le x5 weka.core.Instances))
(check-sat)
(pop)
(push)
(assert (not (le x5 weka.core.Instances)))
(check-sat)
(pop)
(pop)
(push)
(assert (le x10 weka.core.Instances))
(check-sat)
(pop)
(push)
(assert (not (le x10 weka.core.Instances)))
(check-sat)
(pop)
(pop)
(pop)
(push)
(assert (le x0 java.util.Vector))
(check-sat)
(pop)
(push)
(assert (not (le x0 java.util.Vector)))
(check-sat)
(push)
(assert (le x1 java.util.Vector))
(check-sat)
(pop)
(push)
(assert (not (le x1 java.util.Vector)))
(check-sat)
(pop)
(pop)
(push)
(assert (le x4 weka.core.Instance))
(check-sat)
(push)
(assert (le x14 java.lang.StringBuffer))
(check-sat)
(push)
(assert (le x13 weka.core.Queue_currencysign_QueueNode))
(check-sat)
(pop)
(push)
(assert (not (le x13 weka.core.Queue_currencysign_QueueNode)))
(check-sat)
(pop)
(pop)
(push)
(assert (not (le x14 java.lang.StringBuffer)))
(check-sat)
(push)
(assert (le x5 weka.core.Instance))
(check-sat)
(pop)
(push)
(assert (not (le x5 weka.core.Instance)))
(check-sat)
(pop)
(pop)
(push)
(assert (le x6 weka.core.Instances))
(check-sat)
(pop)
(push)
(assert (not (le x6 weka.core.Instances)))
(check-sat)
(pop)
(push)
(assert (le x9 weka.core.FastVector))
(check-sat)
(pop)
(push)
(assert (not (le x9 weka.core.FastVector)))
(check-sat)
(pop)
(push)
(assert (le x2 weka.core.Instance))
(check-sat)
(pop)
(push)
(assert (not (le x2 weka.core.Instance)))
(check-sat)
(pop)
(push)
(assert (le x6 weka.core.AttributeLocator))
(check-sat)
(pop)
(push)
(assert (not (le x6 weka.core.AttributeLocator)))
(check-sat)
(push)
(assert (le x6 weka.core.AttributeLocator))
(check-sat)
(pop)
(push)
(assert (not (le x6 weka.core.AttributeLocator)))
(check-sat)
(pop)
(pop)
(push)
(assert (le x3 weka.core.Instances))
(check-sat)
(pop)
(push)
(assert (not (le x3 weka.core.Instances)))
(check-sat)
(pop)
(pop)
(push)
(assert (not (le x4 weka.core.Instance)))
(check-sat)
(push)
(assert (le x13 weka.core.FastVector))
(check-sat)
(push)
(assert (le x2 weka.core.SerializedObject))
(check-sat)
(pop)
(push)
(assert (not (le x2 weka.core.SerializedObject)))
(check-sat)
(pop)
(push)
(assert (le x11 weka.core.Instances))
(check-sat)
(pop)
(push)
(assert (not (le x11 weka.core.Instances)))
(check-sat)
(pop)
(push)
(assert (le x2 weka.core.Instances))
(check-sat)
(pop)
(push)
(assert (not (le x2 weka.core.Instances)))
(check-sat)
(pop)
(pop)
(push)
(assert (not (le x13 weka.core.FastVector)))
(check-sat)
(pop)
(push)
(assert (le x5 weka.core.Attribute))
(check-sat)
(pop)
(push)
(assert (not (le x5 weka.core.Attribute)))
(check-sat)
(pop)
(push)
(assert (le x2 weka.core.Instances))
(check-sat)
(pop)
(push)
(assert (not (le x2 weka.core.Instances)))
(check-sat)
(push)
(assert (le x2 weka.core.Instances))
(check-sat)
(pop)
(push)
(assert (not (le x2 weka.core.Instances)))
(check-sat)
(pop)
(push)
(assert (le x10 java.lang.Boolean))
(check-sat)
(pop)
(push)
(assert (not (le x10 java.lang.Boolean)))
(check-sat)
(pop)
(push)
(assert (le x4 weka.core.Instance))
(check-sat)
(pop)
(push)
(assert (not (le x4 weka.core.Instance)))
(check-sat)
(push)
(assert (le x6 java.lang.String))
(check-sat)
(pop)
(push)
(assert (not (le x6 java.lang.String)))
(check-sat)
(pop)
(push)
(assert (le x4 weka.core.Instance))
(check-sat)
(pop)
(push)
(assert (not (le x4 weka.core.Instance)))
(check-sat)
(pop)
(push)
(assert (le x7 weka.core.Instance))
(check-sat)
(pop)
(push)
(assert (not (le x7 weka.core.Instance)))
(check-sat)
(pop)
(pop)
(pop)
(push)
(assert (le x5 weka.core.Attribute))
(check-sat)
(pop)
(push)
(assert (not (le x5 weka.core.Attribute)))
(check-sat)
(pop)
(push)
(assert (le x4 weka.core.Instance))
(check-sat)
(pop)
(push)
(assert (not (le x4 weka.core.Instance)))
(check-sat)
(push)
(assert (le x15 weka.core.Instance))
(check-sat)
(pop)
(push)
(assert (not (le x15 weka.core.Instance)))
(check-sat)
(pop)
(pop)
(push)
(assert (le x8 weka.core.Instances))
(check-sat)
(push)
(assert (le x3 weka.core.Attribute))
(check-sat)
(push)
(assert (le x9 weka.classifiers.trees.m5.Impurity))
(check-sat)
(pop)
(push)
(assert (not (le x9 weka.classifiers.trees.m5.Impurity)))
(check-sat)
(pop)
(push)
(assert (le x12 weka.core.Capabilities))
(check-sat)
(pop)
(push)
(assert (not (le x12 weka.core.Capabilities)))
(check-sat)
(pop)
(pop)
(push)
(assert (not (le x3 weka.core.Attribute)))
(check-sat)
(pop)
(push)
(assert (le x11 weka.core.Instance))
(check-sat)
(pop)
(push)
(assert (not (le x11 weka.core.Instance)))
(check-sat)
(push)
(assert (le x15 weka.core.Instance))
(check-sat)
(pop)
(push)
(assert (not (le x15 weka.core.Instance)))
(check-sat)
(pop)
(push)
(assert (le x12 weka.core.Instance))
(check-sat)
(pop)
(push)
(assert (not (le x12 weka.core.Instance)))
(check-sat)
(pop)
(push)
(assert (le x4 weka.core.Instance))
(check-sat)
(pop)
(push)
(assert (not (le x4 weka.core.Instance)))
(check-sat)
(pop)
(pop)
(pop)
(push)
(assert (not (le x8 weka.core.Instances)))
(check-sat)
(pop)
(push)
(assert (le x2 java.lang.String))
(check-sat)
(push)
(assert (le x3 java.lang.String))
(check-sat)
(pop)
(push)
(assert (not (le x3 java.lang.String)))
(check-sat)
(pop)
(pop)
(push)
(assert (not (le x2 java.lang.String)))
(check-sat)
(pop)
(push)
(assert (le x9 weka.core.Instance))
(check-sat)
(pop)
(push)
(assert (not (le x9 weka.core.Instance)))
(check-sat)
(push)
(assert (le x0 java.util.Vector))
(check-sat)
(pop)
(push)
(assert (not (le x0 java.util.Vector)))
(check-sat)
(pop)
(push)
(assert (le x1 java.lang.String))
(check-sat)
(pop)
(push)
(assert (not (le x1 java.lang.String)))
(check-sat)
(pop)
(pop)
(push)
(assert (le x12 weka.core.AttributeLocator))
(check-sat)
(pop)
(push)
(assert (not (le x12 weka.core.AttributeLocator)))
(check-sat)
(pop)
(push)
(assert (le x5 java.lang.String))
(check-sat)
(pop)
(push)
(assert (not (le x5 java.lang.String)))
(check-sat)
(pop)
(pop)
(push)
(assert (le x2 weka.core.Instances))
(check-sat)
(push)
(assert (le x5 weka.core.Instances))
(check-sat)
(push)
(assert (le x5 weka.core.Instances))
(check-sat)
(pop)
(push)
(assert (not (le x5 weka.core.Instances)))
(check-sat)
(pop)
(pop)
(push)
(assert (not (le x5 weka.core.Instances)))
(check-sat)
(pop)
(push)
(assert (le x7 java.lang.String))
(check-sat)
(pop)
(push)
(assert (not (le x7 java.lang.String)))
(check-sat)
(push)
(assert (le x12 weka.core.FastVector))
(check-sat)
(pop)
(push)
(assert (not (le x12 weka.core.FastVector)))
(check-sat)
(pop)
(pop)
(push)
(assert (le x6 java.lang.StringBuffer))
(check-sat)
(pop)
(push)
(assert (not (le x6 java.lang.StringBuffer)))
(check-sat)
(push)
(assert (le x12 weka.core.Queue_currencysign_QueueNode))
(check-sat)
(pop)
(push)
(assert (not (le x12 weka.core.Queue_currencysign_QueueNode)))
(check-sat)
(push)
(assert (le x0 weka.core.Queue_currencysign_QueueNode))
(check-sat)
(pop)
(push)
(assert (not (le x0 weka.core.Queue_currencysign_QueueNode)))
(check-sat)
(pop)
(pop)
(pop)
(pop)
(push)
(assert (not (le x2 weka.core.Instances)))
(check-sat)
(pop)
(push)
(assert (le x2 java.util.Vector))
(check-sat)
(pop)
(push)
(assert (not (le x2 java.util.Vector)))
(check-sat)
(push)
(assert (le x0 weka.core.AttributeLocator))
(check-sat)
(pop)
(push)
(assert (not (le x0 weka.core.AttributeLocator)))
(check-sat)
(pop)
(push)
(assert (le x5 weka.core.Instances))
(check-sat)
(pop)
(push)
(assert (not (le x5 weka.core.Instances)))
(check-sat)
(push)
(assert (le x15 weka.core.Instance))
(check-sat)
(pop)
(push)
(assert (not (le x15 weka.core.Instance)))
(check-sat)
(pop)
(push)
(assert (le x5 weka.core.Instances))
(check-sat)
(pop)
(push)
(assert (not (le x5 weka.core.Instances)))
(check-sat)
(pop)
(push)
(assert (le x11 java.lang.StringBuffer))
(check-sat)
(pop)
(push)
(assert (not (le x11 java.lang.StringBuffer)))
(check-sat)
(pop)
(pop)
(push)
(assert (le x8 java.util.Vector))
(check-sat)
(pop)
(push)
(assert (not (le x8 java.util.Vector)))
(check-sat)
(pop)
(push)
(assert (le x14 weka.core.Instances))
(check-sat)
(pop)
(push)
(assert (not (le x14 weka.core.Instances)))
(check-sat)
(push)
(assert (le x3 java.lang.String))
(check-sat)
(pop)
(push)
(assert (not (le x3 java.lang.String)))
(check-sat)
(pop)
(pop)
(pop)
(pop)
(push)
(assert (not (le x15 weka.core.Instance)))
(check-sat)
(pop)
